20170614 100 0 0 0
20160620 50 10000 0 0
20130715 50 0 0 0
20120706 0 3000 0 0
20100607 120 0 0 0
20080821 190 0 0 0
20071011 0 8000 0 0
20070706 150 0 0 0
20060906 0 3500 0 0
20060714 220 0 0 0
20050606 70 0 0 0
